(declare-fun var0 () String)
(assert (str.in.re var0 (re.++ (re.union (re.* (str.to.re "DDD")) (re.+ (str.to.re "EE"))) (re.++ (re.union (re.* (str.to.re "B")) (re.* (str.to.re "C"))) (re.++ (re.* (re.+ (str.to.re "AA"))) (re.++ (re.union (re.union (str.to.re "xxx") (str.to.re "yyy")) (re.* (str.to.re "zz"))) (re.++ (re.+ (re.union (str.to.re "vvv") (str.to.re "ww"))) (re.++ (re.union (re.* (str.to.re "t")) (re.* (str.to.re "uuu"))) (re.++ (re.* (re.* (str.to.re "sss"))) (re.++ (re.* (re.+ (str.to.re "r"))) (re.++ (re.union (re.union (str.to.re "nn") (str.to.re "o")) (re.union (str.to.re "pp") (str.to.re "q"))) (re.++ (re.* (re.+ (str.to.re "mm"))) (re.++ (re.+ (re.union (str.to.re "kkk") (str.to.re "ll"))) (re.++ (re.+ (re.+ (str.to.re "j"))) (re.++ (re.union (re.union (str.to.re "gg") (str.to.re "hh")) (re.+ (str.to.re "i"))) (re.++ (re.* (re.+ (str.to.re "f"))) (re.++ (re.union (re.* (str.to.re "ddd")) (re.* (str.to.re "e"))) (re.++ (re.union (re.* (str.to.re "b")) (re.+ (str.to.re "ccc"))) (re.++ (re.+ (re.union (str.to.re "9") (str.to.re "aaa"))) (re.++ (re.* (re.union (str.to.re "777") (str.to.re "888"))) (re.++ (re.+ (re.+ (str.to.re "6"))) (re.++ (re.* (re.union (str.to.re "4") (str.to.re "55"))) (re.++ (re.* (re.union (str.to.re "222") (str.to.re "33"))) (re.+ (re.union (str.to.re "0") (str.to.re "11"))))))))))))))))))))))))))
(check-sat)